87
11
0 13 16 17 20 22 26 27 28 37 38 39 40 42 44 50 52 53 54 55 56 59 61 62 65 66 67 68 70 71 72 74 78 80 81 83 84 85 86
1 13 17 18 19 23 24 25 26 27 28 32 33 36 37 40 42 43 44 45 48 50 51 52 54 55 58 59 61 62 66 67 68 70 71 72 74 77 79 80 82 83 86
2 12 13 15 16 17 20 23 24 25 26 27 28 31 35 37 40 42 44 45 47 48 51 54 55 56 57 59 62 66 68 69 70 71 72 73 74 75 76 78 80 81 83 84 85 86
3 13 17 18 19 20 23 25 27 30 31 33 37 38 39 42 43 45 47 48 49 52 59 61 62 63 65 67 70 71 72 73 74 76 77 79 81 83 84 85 86
4 15 16 17 19 21 24 25 27 28 29 30 31 36 38 39 40 42 43 45 50 51 52 53 55 56 61 62 64 65 66 69 70 71 72 76 77 78 81 84 85
5 13 14 15 16 23 24 25 27 33 35 41 43 44 45 49 50 54 56 61 62 63 65 67 68 69 74 76 77 78 79 84 85
6 11 14 15 16 17 25 27 28 29 32 34 36 37 39 40 41 42 44 48 49 53 56 57 66 67 71 72 73 76 79 86
7 11 18 20 21 29 30 32 36 37 44 45 48 50 52 56 57 59 60 67 68 69 71 78 80 82 85
8 14 23 25 26 31 35 36 39 43 48 53 54 65 72 74 76 79 86
9 15 16 19 28 40 43 46 52 53 61 69 77 84
10 12 22 25 34 76 77 78 80 81
